<number of tasks>
50

<cycle time>
1000

<order strength>
0.202


<task times>
1 274
2 269
3 37
4 47
5 217
6 130
7 148
8 160
9 46
10 496
11 164
12 259
13 134
14 152
15 45
16 266
17 208
18 605
19 115
20 462
21 180
22 246
23 104
24 43
25 229
26 136
27 597
28 168
29 498
30 280
31 28
32 202
33 51
34 478
35 264
36 20
37 292
38 62
39 64
40 193
41 317
42 428
43 112
44 352
45 496
46 286
47 503
48 476
49 587
50 90

<precedence relations>
1,7
2,8
3,6
3,9
4,12
4,13
4,22
5,10
5,11
6,14
7,15
8,15
9,18
11,16
11,17
14,19
15,20
15,21
16,24
17,22
18,23
18,24
19,25
20,26
21,27
22,28
22,29
23,31
24,30
25,38
26,32
27,34
28,35
29,36
30,33
30,37
32,42
33,39
34,42
35,40
36,42
37,41
38,43
39,45
40,46
41,44
42,48
43,47
43,49
43,50

<end>
